(set-logic ALL)
(declare-const k Int)
(declare-fun %B () (_ BitVec k))
(declare-fun %A () (_ BitVec k))
(assert (not (= (bvor (bvor %A %B) (bvxor (bvand %A %B) (bvnot (_ bv0 k)))) (bvxor %A %B))))
(check-sat)